unsat
(:cnf-encoding-aux-vars   21
 :eliminated-applications 4
 :eliminated-vars         59
 :max-memory              18.44
 :memory                  18.12
 :nlsat-conflicts         4
 :nlsat-decisions         6
 :nlsat-learned-added     3
 :nlsat-propagations      12
 :num-allocs              11225
 :rlimit-count            30515
 :time                    0.01
 :total-time              0.02)
